p cnf 24 20
-1 16 -2 15 19 0 
-2 15 -3 5 9 20 0 
-4 -5 3 9 19 0 
-6 8 21 0 
-7 -8 6 19 0 
-9 3 5 21 0 
-10 -11 21 0 
-10 -12 18 19 0 
-13 20 0 
-14 22 -13 0 
-15 2 23 0 
-16 1 23 0 
-16 1 22 -13 0 
-15 2 22 -13 0 
-17 21 0 
-1 16 -18 12 23 0 
-14 23 0 
-1 16 -11 22 -13 0 
-15 2 24 0 
-11 -1 16 22 -13 0 
